&FORCE_EVAL
  METHOD FIST
  &MM
    &FORCEFIELD
      &CHARGE
        ATOM Ar
        CHARGE 0.0
      &END
      &NONBONDED
        &LENNARD-JONES
          atoms Ar Ar
          EPSILON 119.8
          SIGMA 3.405
          RCUT 8.4
        &END LENNARD-JONES
      &END NONBONDED
    &END FORCEFIELD
    &POISSON
      &EWALD
        EWALD_TYPE none
      &END EWALD
    &END POISSON
  &END MM
  &SUBSYS
    &CELL
      ABC 10.10 11.11 12.12
    &END CELL
    &COORD
   Ar -8.53869012951987116 -15.5816257770688615 2.85663672298278293
   Ar 1.53007304829383051 9.28528179040142554 11.1777824543317941
    &END COORD
    &TOPOLOGY
    &END TOPOLOGY
  &END SUBSYS
&END FORCE_EVAL
&GLOBAL
  PROJECT ar108
  RUN_TYPE md
&END GLOBAL
&MOTION
  &MD
    ENSEMBLE NVE
    STEPS 20 
    TIMESTEP 5.
    TEMPERATURE 85.0
  &END MD
  &FREE_ENERGY
    &METADYN
        USE_PLUMED TRUE
        PLUMED_INPUT_FILE plumed.dat
    &END METADYN
  &END FREE_ENERGY
  &PRINT
   &TRAJECTORY
     FILENAME file
     &EACH
       MD 1
     &END EACH
   &END TRAJECTORY
   &VELOCITIES OFF
   &END VELOCITIES
   &FORCES OFF
   &END FORCES
  &END PRINT
&END MOTION
